50 9833

238
211
27
118
139
28
80
164
328
195
201
404
172
293
242
228
192
104
31
391
21
273
347
191
292
378
270
497
73
135
136
464
426
233
280
405
183
399
243
423
469
301
171
392
39
485
145
148
224
463
